experiment/data/lkh-res/Vrp-Set-Golden-n484/Vrp-Set-Golden-n484-lkh/0.lkh1.vrp
NAME : 0
COMMENT : CVRP Instance
TYPE : CVRP
DIMENSION : 484
EDGE_WEIGHT_TYPE : EUC_2D
CAPACITY : 1000
NODE_COORD_SECTION
1	0	-2099
2	-99	-1999
3	100	-1999
4	-199	-1899
5	0	-1899
6	200	-1899
7	-299	-1799
8	-99	-1799
9	100	-1799
10	300	-1799
11	-399	-1699
12	-199	-1699
13	0	-1699
14	200	-1699
15	400	-1699
16	-499	-1599
17	-299	-1599
18	-99	-1599
19	100	-1599
20	300	-1599
21	500	-1599
22	-599	-1499
23	-399	-1499
24	-199	-1499
25	0	-1499
26	200	-1499
27	400	-1499
28	600	-1499
29	-699	-1399
30	-499	-1399
31	-299	-1399
32	-99	-1399
33	100	-1399
34	300	-1399
35	500	-1399
36	700	-1399
37	-799	-1299
38	-599	-1299
39	-399	-1299
40	-199	-1299
41	0	-1299
42	200	-1299
43	400	-1299
44	600	-1299
45	800	-1299
46	-899	-1199
47	-699	-1199
48	-499	-1199
49	-299	-1199
50	-99	-1199
51	100	-1199
52	300	-1199
53	500	-1199
54	700	-1199
55	900	-1199
56	-999	-1099
57	-799	-1099
58	-599	-1099
59	-399	-1099
60	-199	-1099
61	0	-1099
62	200	-1099
63	400	-1099
64	600	-1099
65	800	-1099
66	1000	-1099
67	-1099	-999
68	-899	-999
69	-699	-999
70	-499	-999
71	-299	-999
72	-99	-999
73	100	-999
74	300	-999
75	500	-999
76	700	-999
77	900	-999
78	1100	-999
79	-1199	-899
80	-999	-899
81	-799	-899
82	-599	-899
83	-399	-899
84	-199	-899
85	0	-899
86	200	-899
87	400	-899
88	600	-899
89	800	-899
90	1000	-899
91	1200	-899
92	-1299	-799
93	-1099	-799
94	-899	-799
95	-699	-799
96	-499	-799
97	-299	-799
98	-99	-799
99	100	-799
100	300	-799
101	500	-799
102	700	-799
103	900	-799
104	1100	-799
105	1300	-799
106	-1399	-699
107	-1199	-699
108	-999	-699
109	-799	-699
110	-599	-699
111	-399	-699
112	-199	-699
113	0	-699
114	200	-699
115	400	-699
116	600	-699
117	800	-699
118	1000	-699
119	1200	-699
120	1400	-699
121	-1499	-599
122	-1299	-599
123	-1099	-599
124	-899	-599
125	-699	-599
126	-499	-599
127	-299	-599
128	-99	-599
129	100	-599
130	300	-599
131	500	-599
132	700	-599
133	900	-599
134	1100	-599
135	1300	-599
136	1500	-599
137	-1599	-499
138	-1399	-499
139	-1199	-499
140	-999	-499
141	-799	-499
142	-599	-499
143	-399	-499
144	-199	-499
145	0	-499
146	200	-499
147	400	-499
148	600	-499
149	800	-499
150	1000	-499
151	1200	-499
152	1400	-499
153	1600	-499
154	-1699	-399
155	-1499	-399
156	-1299	-399
157	-1099	-399
158	-899	-399
159	-699	-399
160	-499	-399
161	-299	-399
162	-99	-399
163	100	-399
164	300	-399
165	500	-399
166	700	-399
167	900	-399
168	1100	-399
169	1300	-399
170	1500	-399
171	1700	-399
172	-1799	-299
173	-1599	-299
174	-1399	-299
175	-1199	-299
176	-999	-299
177	-799	-299
178	-599	-299
179	-399	-299
180	-199	-299
181	0	-299
182	200	-299
183	400	-299
184	600	-299
185	800	-299
186	1000	-299
187	1200	-299
188	1400	-299
189	1600	-299
190	1800	-299
191	-1899	-199
192	-1699	-199
193	-1499	-199
194	-1299	-199
195	-1099	-199
196	-899	-199
197	-699	-199
198	-499	-199
199	-299	-199
200	-99	-199
201	100	-199
202	300	-199
203	500	-199
204	700	-199
205	900	-199
206	1100	-199
207	1300	-199
208	1500	-199
209	1700	-199
210	1900	-199
211	-1999	-99
212	-1799	-99
213	-1599	-99
214	-1399	-99
215	-1199	-99
216	-999	-99
217	-799	-99
218	-599	-99
219	-399	-99
220	-199	-99
221	0	-99
222	200	-99
223	400	-99
224	600	-99
225	800	-99
226	1000	-99
227	1200	-99
228	1400	-99
229	1600	-99
230	1800	-99
231	2000	-99
232	-2099	0
233	-1899	0
234	-1699	0
235	-1499	0
236	-1299	0
237	-1099	0
238	-899	0
239	-699	0
240	-499	0
241	-299	0
242	-99	0
243	100	0
244	300	0
245	500	0
246	700	0
247	900	0
248	1100	0
249	1300	0
250	1500	0
251	1700	0
252	1900	0
253	2100	0
254	-1999	100
255	-1799	100
256	-1599	100
257	-1399	100
258	-1199	100
259	-999	100
260	-799	100
261	-599	100
262	-399	100
263	-199	100
264	0	100
265	200	100
266	400	100
267	600	100
268	800	100
269	1000	100
270	1200	100
271	1400	100
272	1600	100
273	1800	100
274	2000	100
275	-1899	200
276	-1699	200
277	-1499	200
278	-1299	200
279	-1099	200
280	-899	200
281	-699	200
282	-499	200
283	-299	200
284	-99	200
285	100	200
286	300	200
287	500	200
288	700	200
289	900	200
290	1100	200
291	1300	200
292	1500	200
293	1700	200
294	1900	200
295	-1799	300
296	-1599	300
297	-1399	300
298	-1199	300
299	-999	300
300	-799	300
301	-599	300
302	-399	300
303	-199	300
304	0	300
305	200	300
306	400	300
307	600	300
308	800	300
309	1000	300
310	1200	300
311	1400	300
312	1600	300
313	1800	300
314	-1699	400
315	-1499	400
316	-1299	400
317	-1099	400
318	-899	400
319	-699	400
320	-499	400
321	-299	400
322	-99	400
323	100	400
324	300	400
325	500	400
326	700	400
327	900	400
328	1100	400
329	1300	400
330	1500	400
331	1700	400
332	-1599	500
333	-1399	500
334	-1199	500
335	-999	500
336	-799	500
337	-599	500
338	-399	500
339	-199	500
340	0	500
341	200	500
342	400	500
343	600	500
344	800	500
345	1000	500
346	1200	500
347	1400	500
348	1600	500
349	-1499	600
350	-1299	600
351	-1099	600
352	-899	600
353	-699	600
354	-499	600
355	-299	600
356	-99	600
357	100	600
358	300	600
359	500	600
360	700	600
361	900	600
362	1100	600
363	1300	600
364	1500	600
365	-1399	700
366	-1199	700
367	-999	700
368	-799	700
369	-599	700
370	-399	700
371	-199	700
372	0	700
373	200	700
374	400	700
375	600	700
376	800	700
377	1000	700
378	1200	700
379	1400	700
380	-1299	800
381	-1099	800
382	-899	800
383	-699	800
384	-499	800
385	-299	800
386	-99	800
387	100	800
388	300	800
389	500	800
390	700	800
391	900	800
392	1100	800
393	1300	800
394	-1199	900
395	-999	900
396	-799	900
397	-599	900
398	-399	900
399	-199	900
400	0	900
401	200	900
402	400	900
403	600	900
404	800	900
405	1000	900
406	1200	900
407	-1099	1000
408	-899	1000
409	-699	1000
410	-499	1000
411	-299	1000
412	-99	1000
413	100	1000
414	300	1000
415	500	1000
416	700	1000
417	900	1000
418	1100	1000
419	-999	1100
420	-799	1100
421	-599	1100
422	-399	1100
423	-199	1100
424	0	1100
425	200	1100
426	400	1100
427	600	1100
428	800	1100
429	1000	1100
430	-899	1200
431	-699	1200
432	-499	1200
433	-299	1200
434	-99	1200
435	100	1200
436	300	1200
437	500	1200
438	700	1200
439	900	1200
440	-799	1300
441	-599	1300
442	-399	1300
443	-199	1300
444	0	1300
445	200	1300
446	400	1300
447	600	1300
448	800	1300
449	-699	1400
450	-499	1400
451	-299	1400
452	-99	1400
453	100	1400
454	300	1400
455	500	1400
456	700	1400
457	-599	1500
458	-399	1500
459	-199	1500
460	0	1500
461	200	1500
462	400	1500
463	600	1500
464	-499	1600
465	-299	1600
466	-99	1600
467	100	1600
468	300	1600
469	500	1600
470	-399	1700
471	-199	1700
472	0	1700
473	200	1700
474	400	1700
475	-299	1800
476	-99	1800
477	100	1800
478	300	1800
479	-199	1900
480	0	1900
481	200	1900
482	-99	2000
483	100	2000
484	0	2100
DEMAND_SECTION
1	0
2	300
3	300
4	180
5	300
6	180
7	128
8	180
9	180
10	128
11	100
12	128
13	180
14	128
15	100
16	81
17	100
18	128
19	128
20	100
21	81
22	69
23	81
24	100
25	128
26	100
27	81
28	69
29	60
30	69
31	81
32	100
33	100
34	81
35	69
36	60
37	52
38	60
39	69
40	81
41	100
42	81
43	69
44	60
45	52
46	47
47	52
48	60
49	69
50	81
51	81
52	69
53	60
54	52
55	47
56	42
57	47
58	52
59	60
60	69
61	81
62	69
63	60
64	52
65	47
66	42
67	39
68	42
69	47
70	52
71	60
72	69
73	69
74	60
75	52
76	47
77	42
78	39
79	36
80	39
81	42
82	47
83	52
84	60
85	69
86	60
87	52
88	47
89	42
90	39
91	36
92	33
93	36
94	39
95	42
96	47
97	52
98	60
99	60
100	52
101	47
102	42
103	39
104	36
105	33
106	31
107	33
108	36
109	39
110	42
111	47
112	52
113	60
114	52
115	47
116	42
117	39
118	36
119	33
120	31
121	29
122	31
123	33
124	36
125	39
126	42
127	47
128	52
129	52
130	47
131	42
132	39
133	36
134	33
135	31
136	29
137	27
138	29
139	31
140	33
141	36
142	39
143	42
144	47
145	52
146	47
147	42
148	39
149	36
150	33
151	31
152	29
153	27
154	25
155	27
156	29
157	31
158	33
159	36
160	39
161	42
162	47
163	47
164	42
165	39
166	36
167	33
168	31
169	29
170	27
171	25
172	24
173	25
174	27
175	29
176	31
177	33
178	36
179	39
180	42
181	47
182	42
183	39
184	36
185	33
186	31
187	29
188	27
189	25
190	24
191	23
192	24
193	25
194	27
195	29
196	31
197	33
198	36
199	39
200	42
201	42
202	39
203	36
204	33
205	31
206	29
207	27
208	25
209	24
210	23
211	21
212	23
213	24
214	25
215	27
216	29
217	31
218	33
219	36
220	39
221	42
222	39
223	36
224	33
225	31
226	29
227	27
228	25
229	24
230	23
231	21
232	20
233	21
234	23
235	24
236	25
237	27
238	29
239	31
240	33
241	36
242	39
243	39
244	36
245	33
246	31
247	29
248	27
249	25
250	24
251	23
252	21
253	20
254	20
255	21
256	23
257	24
258	25
259	27
260	29
261	31
262	33
263	36
264	39
265	36
266	33
267	31
268	29
269	27
270	25
271	24
272	23
273	21
274	20
275	20
276	21
277	23
278	24
279	25
280	27
281	29
282	31
283	33
284	36
285	36
286	33
287	31
288	29
289	27
290	25
291	24
292	23
293	21
294	20
295	20
296	21
297	23
298	24
299	25
300	27
301	29
302	31
303	33
304	36
305	33
306	31
307	29
308	27
309	25
310	24
311	23
312	21
313	20
314	20
315	21
316	23
317	24
318	25
319	27
320	29
321	31
322	33
323	33
324	31
325	29
326	27
327	25
328	24
329	23
330	21
331	20
332	20
333	21
334	23
335	24
336	25
337	27
338	29
339	31
340	33
341	31
342	29
343	27
344	25
345	24
346	23
347	21
348	20
349	20
350	21
351	23
352	24
353	25
354	27
355	29
356	31
357	31
358	29
359	27
360	25
361	24
362	23
363	21
364	20
365	20
366	21
367	23
368	24
369	25
370	27
371	29
372	31
373	29
374	27
375	25
376	24
377	23
378	21
379	20
380	20
381	21
382	23
383	24
384	25
385	27
386	29
387	29
388	27
389	25
390	24
391	23
392	21
393	20
394	20
395	21
396	23
397	24
398	25
399	27
400	29
401	27
402	25
403	24
404	23
405	21
406	20
407	20
408	21
409	23
410	24
411	25
412	27
413	27
414	25
415	24
416	23
417	21
418	20
419	20
420	21
421	23
422	24
423	25
424	27
425	25
426	24
427	23
428	21
429	20
430	20
431	21
432	23
433	24
434	25
435	25
436	24
437	23
438	21
439	20
440	20
441	21
442	23
443	24
444	25
445	24
446	23
447	21
448	20
449	20
450	21
451	23
452	24
453	24
454	23
455	21
456	20
457	20
458	21
459	23
460	24
461	23
462	21
463	20
464	20
465	21
466	23
467	23
468	21
469	20
470	20
471	21
472	23
473	21
474	20
475	20
476	21
477	21
478	20
479	20
480	21
481	20
482	20
483	20
484	20
DEPOT_SECTION
1
-1
EOF
