experiment/data/lkh-res/Vrp-Set-Golden-n484/Vrp-Set-Golden-n484-lkh/0.lkh1.tour
NAME : 0.113844.tour
COMMENT : Length = 113844
COMMENT : Found by LKH-3 [Keld Helsgaun] Tue Apr  9 02:23:50 2024
TYPE : TOUR
DIMENSION : 502
TOUR_SECTION
1
3
6
9
5
486
52
63
75
88
76
89
102
117
103
118
104
91
78
66
55
45
36
28
21
499
105
120
136
153
171
189
190
210
231
253
274
294
313
331
348
364
379
393
406
392
377
362
345
328
309
290
270
248
226
205
185
167
149
132
116
101
87
498
99
129
145
181
221
243
264
285
305
323
341
357
372
356
340
322
304
284
263
242
220
200
162
144
112
500
26
42
62
73
85
98
84
72
61
51
33
19
497
148
166
204
225
247
268
288
307
326
343
360
375
389
402
414
426
415
403
390
404
417
429
418
405
391
376
361
344
327
308
289
269
206
186
168
150
133
501
335
351
366
381
395
408
420
431
441
450
458
451
459
465
471
476
472
466
460
453
461
467
473
478
481
477
480
483
484
482
479
475
470
464
457
449
440
430
419
407
394
380
365
349
332
315
297
494
183
325
359
374
388
401
413
425
436
446
437
427
416
428
439
448
438
447
456
463
455
469
474
468
462
454
445
435
444
452
443
434
424
412
386
371
339
321
303
283
492
10
15
27
35
44
54
64
53
43
34
20
14
495
16
22
29
37
46
56
67
79
93
80
68
57
47
38
30
23
12
493
82
95
109
124
140
157
139
156
175
194
214
235
257
278
298
316
333
350
334
317
299
279
258
236
215
195
176
158
141
125
110
59
487
39
48
70
96
126
142
159
177
196
216
237
259
238
217
197
178
160
143
111
83
71
60
49
496
18
24
31
40
50
41
32
25
13
490
8
17
11
7
4
2
502
65
77
90
119
135
152
170
188
208
228
250
229
209
230
252
273
251
272
293
312
292
311
330
347
363
378
346
329
310
291
271
249
227
207
187
169
151
134
485
58
69
81
94
108
123
107
122
138
155
174
193
213
234
256
277
296
314
295
276
255
275
254
232
211
233
212
191
172
192
173
154
137
121
106
92
491
163
201
265
286
306
324
342
358
373
387
400
399
385
398
410
422
411
423
433
442
432
421
409
397
384
370
355
338
320
302
282
262
241
161
488
74
100
115
131
147
165
184
203
224
246
267
287
266
245
223
244
222
202
182
164
146
130
114
86
489
97
127
179
198
218
239
260
280
300
318
336
352
367
382
396
383
368
353
369
354
337
319
301
281
261
240
219
199
180
128
113
-1
EOF
